c A SAT instance generated from a 3-CNF formula that had 52 clauses and 13 variables
p cnf 13 52
-3 -11 -5 0
-7 -3 9 0
4 5 -7 0
10 1 -11 0
-10 -3 9 0
12 1 6 0
-4 5 -7 0
-6 -8 2 0
-2 3 -10 0
7 1 -6 0
10 2 -9 0
-11 1 -4 0
-11 -4 -5 0
-11 -1 -6 0
2 -9 -11 0
-2 -13 3 0
-10 -5 1 0
12 -7 9 0
-7 10 -13 0
-3 13 -2 0
9 -10 4 0
12 3 4 0
-10 4 -13 0
10 6 7 0
-4 -11 -6 0
-10 -12 -8 0
-3 -10 -11 0
2 -5 11 0
8 -7 -13 0
-7 8 1 0
-3 5 -6 0
-3 -10 -13 0
4 -9 -7 0
-12 -4 -10 0
-9 4 -8 0
-5 -7 4 0
12 -1 -10 0
10 -2 8 0
11 7 6 0
-4 -2 -3 0
11 1 13 0
1 12 -3 0
8 -10 3 0
5 -4 6 0
3 11 -9 0
4 1 2 0
-4 -3 1 0
5 -4 -1 0
6 13 -3 0
-5 1 4 0
8 9 10 0
-12 -10 1 0
